
-3.5
-3.5
-3.2
-3.0
-3.0
-2.9
-2.9
-2.9
-2.9
-2.7
-2.7
-2.6
-2.5
-2.4
-2.3
-1.7
-1.5
-1.2
-0.9
-0.9
-0.9
-0.9
-0.8
-0.8
-0.8
-0.8
-0.8
-0.8
-0.8
-0.8
-0.8
-0.8
-0.8
-0.8
-0.8
-0.8
-0.8
-0.8
-0.8
-3.3
-3.15
-3.1
-3.05
-3.0
-3.0
-2.9
-2.85
-2.8
-2.75
-2.65
-2.65
-2.5
-2.4
-2.3
-1.9
-1.6
-1.1
-0.9
-0.8
-0.8
-0.8
-0.8
-0.8
-0.8
-0.8
-0.8
-0.75
-0.75
-0.75
-0.75
-0.75
-0.75
-0.75
-0.75
-0.75
-0.75
-0.75